npieces = 10;	
nplayers = 5;	
duration = [9, 3, 9, 3, 6, 6, 9, 5, 1, 9];
rehearsal = [[1, 1, 1, 0, 1, 0, 0, 1, 1, 0], [0, 1, 1, 0, 1, 1, 1, 0, 0, 1], [1, 0, 0, 0, 1, 1, 1, 1, 1, 1], [1, 1, 1, 1, 1, 1, 0, 1, 1, 1], [0, 0, 1, 1, 1, 1, 1, 1, 1, 1]];